# 
# This is the geometry file that corresponds to the current relaxation step.
# If you do not want this file to be written, set the "write_restart_geometry" flag to .false.
#  aims_uuid : C88FC4AB-B9C5-4D3C-A0D8-E83B989602B4                                                                        
# 
lattice_vector      1.774954157870     -0.904173691762      1.117346671039
lattice_vector     -0.127051283925      2.552528505940      0.996757960389
lattice_vector      0.364600442942      1.372547126564      4.891494118131
atom       1.291301719804     -0.957928407887      0.610346760243 H
atom       1.343790065049      1.978192207962      4.795367738972 H
atom       0.668530687148      1.042596061234      2.210330079160 H
atom       0.704075931342      2.125187981180      2.968970032306 S
# 
# What follows is the current estimated Hessian matrix constructed by the BFGS algorithm.
# This is NOT the true Hessian matrix of the system.
# If you do not want this information here, switch it off using the "hessian_to_restart_geometry" keyword.
# 
trust_radius             0.4807039869
hessian_file
