# 
# This is the geometry file that corresponds to the current relaxation step.
# If you do not want this file to be written, set the "write_restart_geometry" flag to .false.
#  aims_uuid : E52DEA45-BC36-423A-A1A1-697B7E75D377                                                                        
# 
lattice_vector      1.503990157776     -0.077558260148     -0.174146089202
lattice_vector     -0.426031016521      5.242760630057     -0.123367467922
lattice_vector     -0.793156039862     -2.708443404521      6.160808776260
atom      -0.000000000024      0.000000000074     -0.000000000100 H
atom      -0.417758945873      2.552158569952      3.298152564827 H
atom       0.702562047217     -0.095399604407      2.565142654109 H
atom       0.538979570700      2.582601184724     -0.148756778261 S
# 
# What follows is the current estimated Hessian matrix constructed by the BFGS algorithm.
# This is NOT the true Hessian matrix of the system.
# If you do not want this information here, switch it off using the "hessian_to_restart_geometry" keyword.
# 
trust_radius             0.4000000060
hessian_file
