#===============================================================================
# Created using the Atomic Simulation Environment (ASE)

# Mon Mar  2 01:56:25 2026

#=======================================================
lattice_vector 1.8616619999999999 0.0000000000000000 0.0000000000000000 
lattice_vector -0.4365520100000000 5.5435508100000002 0.0000000000000000 
lattice_vector -0.8022145400000000 -2.7127365800000001 6.4227604400000002 
atom 0.0000000000000000 0.0000000000000000 0.0000000000000000 H
atom -0.3463081718799357 2.8017985951799771 3.5823149955605951 H
atom 0.9692036218799357 0.0290156348200228 2.8404454444394052 H
atom 0.7125549950000000 2.7717754050000001 0.0000000000000000 S
