H3S1 /home/alessio-cucciari/Desktop/Programs/fhi-aims.250822/xtalopt_test/runs//00001x00002/
1
  1.86166200   0.00000000   0.00000000
 -0.43655201   5.54355081   0.00000000
 -0.80221454  -2.71273658   6.42276044
H S 
3 1 
Direct
  0.00000000   0.00000000   0.00000000
  0.23684258   0.77835239   0.55775317
  0.76315742   0.22164761   0.44224683
  0.50000000   0.50000000   0.00000000
