H3S1 /home/alessio-cucciari/Desktop/Programs/fhi-aims.250822/xtalopt_test/runs//00001x00002/
1
  1.27108930   0.00000000   0.00000000
  0.11567005   4.10495160   0.00000000
  0.33943702   1.20214428   6.77216591
H S 
3 1 
Direct
  0.50000000   0.00000000   0.00000000
  0.66245892   0.86871687   0.52840611
  0.33754108   0.13128313   0.47159389
  0.50000000   0.50000000   0.50000000
