# 
# This is the geometry file that corresponds to the current relaxation step.
# If you do not want this file to be written, set the "write_restart_geometry" flag to .false.
#  aims_uuid : 2FEBE36A-2290-4781-AFB4-C279FCEF0B69                                                                        
# 
lattice_vector      2.210569694919      0.000000001705      0.000000000003
lattice_vector      0.000000001468      2.120015411299     -0.000000000006
lattice_vector      0.000000000001     -0.000000000002      3.026705994862
atom       0.000000003541     -0.000000002859     -0.000074008745 H
atom       0.554066051455      1.060007705641     -0.000067991165 H
atom       1.656503654100      1.060007719262     -0.000067991251 H
atom       1.105284835484      1.060007697461      1.513562988589 S
# 
# What follows is the current estimated Hessian matrix constructed by the BFGS algorithm.
# This is NOT the true Hessian matrix of the system.
# If you do not want this information here, switch it off using the "hessian_to_restart_geometry" keyword.
# 
trust_radius             0.1593811517
hessian_file
