# 
# This is the geometry file that corresponds to the current relaxation step.
# If you do not want this file to be written, set the "write_restart_geometry" flag to .false.
#  aims_uuid : D378C9A5-D843-4F74-A110-311BF6F16484                                                                        
# 
lattice_vector      1.610332845846      0.000000000030      0.000000000086
lattice_vector      0.000000000005      2.733720462712      0.000000011963
lattice_vector      0.000000000007      0.000000009651      7.232554876232
atom      -0.000000000515      1.366860231072      0.000000006499 H
atom       1.205372287436      0.000000004843      3.616277439284 H
atom       0.404960558771      0.000000004828      3.616277439241 H
atom       0.805166423086      0.000000000309     -0.000000002681 S
# 
# What follows is the current estimated Hessian matrix constructed by the BFGS algorithm.
# This is NOT the true Hessian matrix of the system.
# If you do not want this information here, switch it off using the "hessian_to_restart_geometry" keyword.
# 
trust_radius             0.7838591750
hessian_file
