H3S1 /home/alessio-cucciari/Desktop/Programs/fhi-aims.250822/xtalopt_test/runs//00001x00001/
1
  3.28542340   0.00000000   0.00000000
  0.00000000   3.72231706   0.00000000
  0.00000000   0.00000000   4.15017408
H S 
3 1 
Direct
  0.00000000   0.00000000   0.00000000
  0.19967834   0.50000000   0.00000000
  0.80032166   0.50000000   0.00000000
  0.50000000   0.50000000   0.50000000
