H3S1 /home/alessio-cucciari/Desktop/Programs/fhi-aims.250822/xtalopt_test/runs//00001x00001/
1
  2.80390078   0.00000000   0.00000000
  0.00000000   6.58603287   0.00000000
  0.00000000   0.00000000   9.59083163
H S 
3 1 
Direct
 -0.00000000   0.50000000   0.00000000
  0.70258414   0.00000000   0.50000000
  0.29741586   0.00000000   0.50000000
  0.50000000   0.00000000   0.00000000
